variable r equal 0.02
variable N equal 20

atom_style	granular
atom_modify	map array
boundary	m m m 
newton		off

communicate	single vel yes

units		si

region		reg block -0.05 0.05 -0.05 0.05 0 0.2 units box
create_box	1 reg

neighbor	0.01 bin
neigh_modify	delay 0

#Material properties required for new pair styles

fix 		m1 all property/global youngsModulus peratomtype 5.e6
fix 		m2 all property/global poissonsRatio peratomtype 0.45
fix 		m3 all property/global coefficientRestitution peratomtypepair 1 0.3
fix 		m4 all property/global coefficientFriction peratomtypepair 1 1

#New pair style
pair_style gran model hertz tangential no_history #Hertzian without cohesion
pair_coeff	* *

timestep	0.00001

fix		gravi all gravity 9.81 vector 0.0 0.0 -1.0

#granular walls
fix		container all mesh/surface file Container.stl type 1
fix wall all wall/gran model hertz tangential no_history mesh n_meshes 1 meshes container store_force yes store_force_contact yes store_force_contact_stress yes

#distributions for insertion
fix		pts1 all particletemplate/sphere 15485863 atom_type 1 density constant 2500 radius constant $r
fix		pdd1 all particledistribution/discrete 32452843 1 pts1 1.0 

#region for insertion
region	bc cylinder z 0. 0. 0.05 0.01 0.19 units box

#deprecated pour command
#fix		ins nve_group pour/dev mass 30. 1 distributiontemplate pdd1 vol 0.25 200 massflowrate 30. vel uniform 0. 0. 0. 0. 0.0 region bc

#particle insertion
fix ins all insert/pack seed 32452867 distributiontemplate pdd1 insert_every once overlapcheck yes particles_in_region $N region bc ntry_mc 10000

#apply nve integration to all particles that are inserted as single particles
fix		f all nve/sphere


#output settings, include total thermal energy
fix				ts all check/timestep/gran 1000 0.1 0.1
thermo_style	custom step atoms ke f_ts[1] f_ts[2] vol
thermo			1000
thermo_modify	lost ignore norm no

compute cpp all pair/gran/local id delta contactPoint
compute cpw all wall/gran/local id delta contactPoint 

#insert the first particles so that dump is not empty
run			1
dump		dmp all custom/vtk 1000 pack_*.vtk id type type x y z ix iy iz vx vy vz fx fy fz omegax omegay omegaz radius 

unfix		ins
run			500000 upto
undump dmp

dump		dmp all custom 1 pack_final_grains.dmp id type x y z radius
dump    dmpfrc all local 1 pack_final_forces.dmp c_cpp[1] c_cpp[2] c_cpp[3] c_cpp[4] c_cpp[5] c_cpp[6] c_cpp[7]
dump    dmpfrc2 all local 1 pack_final_wall.dmp c_cpw[1] c_cpw[2] c_cpw[3] c_cpw[4] c_cpw[5] c_cpw[6] c_cpw[7]

run 0

 
